17	4
30	17	27	16	
0	0	0	0	0	3	2	3	4	
2	0	5	5	9	1	17	
10	2	9	10	0	2	6	14	
4	5	0	0	5	3	5	17	17	
6	6	8	0	0	3	8	11	12	
125	2	8	7	0	2	7	9	
100	0	0	5	7	2	17	17	
175	0	0	3	2	1	17	
50	0	7	0	0	1	10	
25	0	4	0	2	3	15	17	17	
175	0	0	0	9	1	17	
250	10	8	0	0	1	13	
6	0	2	0	0	2	17	17	
5	0	0	5	0	1	16	
2	4	0	1	0	1	17	
3	2	0	1	0	1	17	
0	0	0	0	0	0	
